%%% static parameters %%%
timespan = 1;
Clients_N = [4000];
Demand_W = [15];
Lt0 = [4];
Lt1 = [4];
SS_ = [0.85];
DS_D = [20];
K = [200];
MA = [500];
HC = [0.05];
%%% dynamic parameters %%%
lost_ratio_sales_ret_th = 0.00045702859429640495;
lost_ratio_sales_ret_w = 34;
lost_ratio_sales_dis_th = 0.0006636966840831345;
lost_ratio_sales_dis_w = 13;
lost_ratio_sales_fac_th = 0.00036934754324817264;
lost_ratio_sales_fac_w = 69;
stock_customer_MA_mean_relative_th = 0.41288142196122024;
stock_customer_MA_mean_relative_w = 44;
stock_distributor_MA_mean_relative_th = 0.7102061473373322;
stock_distributor_MA_mean_relative_w = 85;
stock_retailer_MA_mean_relative_th = 0.11141775209207117;
stock_retailer_MA_mean_relative_w = 12;
stock_factory_MA_mean_relative_th = 0.6834640011742076;
stock_factory_MA_mean_relative_w = 68;
